c 
c G(k,n,p) graph
c graph gen seed     : 23910
c number of vertices : 60
c max number of edges: 900
c number of classes  : 2
c edge density       : 0.300000
c edge probability   : 0.600000
c data structure     : dense
c
c           Graph Stats
c number of vertices  : 60
c nonisolated vertices: 60
c number of edges     : 535
c edge density        : 0.302260
c max degree          : 24
c avg degree          : 17.83
c min degree          : 13
p col 60 535
e 1 3
e 1 6
e 1 7
e 1 8
e 1 16
e 1 20
e 1 22
e 1 23
e 1 28
e 1 36
e 1 39
e 1 41
e 1 43
e 1 44
e 1 46
e 1 58
e 1 60
e 2 3
e 2 4
e 2 7
e 2 16
e 2 17
e 2 20
e 2 22
e 2 25
e 2 28
e 2 34
e 2 39
e 2 40
e 2 42
e 2 44
e 2 48
e 2 52
e 2 58
e 2 60
e 3 5
e 3 10
e 3 14
e 3 15
e 3 19
e 3 21
e 3 24
e 3 26
e 3 27
e 3 29
e 3 30
e 3 31
e 3 32
e 3 45
e 3 49
e 3 50
e 3 51
e 3 53
e 3 54
e 3 55
e 3 56
e 3 59
e 4 5
e 4 15
e 4 19
e 4 24
e 4 27
e 4 30
e 4 31
e 4 32
e 4 33
e 4 37
e 4 38
e 4 45
e 4 50
e 4 53
e 4 54
e 4 55
e 4 56
e 4 59
e 5 6
e 5 11
e 5 16
e 5 18
e 5 22
e 5 23
e 5 25
e 5 34
e 5 35
e 5 36
e 5 42
e 5 43
e 5 46
e 5 48
e 5 52
e 5 58
e 5 60
e 6 10
e 6 15
e 6 19
e 6 21
e 6 31
e 6 32
e 6 33
e 6 38
e 6 45
e 6 47
e 6 49
e 6 50
e 6 51
e 6 56
e 6 57
e 6 59
e 7 9
e 7 10
e 7 14
e 7 15
e 7 21
e 7 24
e 7 26
e 7 27
e 7 29
e 7 30
e 7 31
e 7 32
e 7 37
e 7 38
e 7 49
e 7 50
e 7 51
e 7 53
e 7 54
e 7 57
e 7 59
e 8 14
e 8 15
e 8 19
e 8 29
e 8 31
e 8 45
e 8 47
e 8 49
e 8 50
e 8 51
e 8 54
e 8 55
e 8 57
e 8 59
e 9 11
e 9 12
e 9 13
e 9 20
e 9 22
e 9 25
e 9 34
e 9 35
e 9 36
e 9 39
e 9 40
e 9 42
e 9 43
e 9 44
e 9 58
e 10 12
e 10 13
e 10 17
e 10 18
e 10 20
e 10 22
e 10 25
e 10 28
e 10 34
e 10 35
e 10 36
e 10 39
e 10 40
e 10 41
e 10 48
e 10 60
e 11 15
e 11 19
e 11 26
e 11 29
e 11 31
e 11 38
e 11 47
e 11 50
e 11 54
e 11 55
e 11 56
e 11 59
e 12 15
e 12 21
e 12 26
e 12 27
e 12 31
e 12 32
e 12 37
e 12 45
e 12 49
e 12 51
e 12 53
e 12 54
e 13 14
e 13 19
e 13 21
e 13 24
e 13 26
e 13 27
e 13 29
e 13 32
e 13 33
e 13 37
e 13 47
e 13 49
e 13 54
e 13 55
e 13 57
e 13 59
e 14 16
e 14 17
e 14 18
e 14 23
e 14 35
e 14 41
e 14 42
e 14 43
e 14 44
e 14 46
e 14 60
e 15 16
e 15 18
e 15 22
e 15 25
e 15 28
e 15 34
e 15 35
e 15 36
e 15 39
e 15 42
e 15 46
e 15 52
e 15 58
e 15 60
e 16 19
e 16 21
e 16 27
e 16 29
e 16 30
e 16 31
e 16 33
e 16 38
e 16 45
e 16 47
e 16 50
e 16 51
e 16 53
e 16 54
e 16 55
e 16 56
e 16 57
e 16 59
e 17 21
e 17 24
e 17 26
e 17 29
e 17 31
e 17 32
e 17 33
e 17 45
e 17 49
e 17 50
e 17 51
e 17 54
e 17 56
e 18 19
e 18 21
e 18 27
e 18 29
e 18 31
e 18 32
e 18 33
e 18 37
e 18 38
e 18 45
e 18 47
e 18 49
e 18 51
e 18 53
e 18 54
e 18 55
e 18 56
e 18 57
e 18 59
e 19 20
e 19 22
e 19 23
e 19 25
e 19 28
e 19 34
e 19 39
e 19 41
e 19 42
e 19 44
e 19 46
e 19 52
e 19 58
e 19 60
e 20 26
e 20 27
e 20 31
e 20 32
e 20 33
e 20 37
e 20 45
e 20 47
e 20 50
e 20 51
e 20 54
e 20 59
e 21 22
e 21 34
e 21 35
e 21 36
e 21 39
e 21 40
e 21 41
e 21 43
e 21 44
e 21 46
e 21 52
e 21 58
e 21 60
e 22 24
e 22 27
e 22 29
e 22 30
e 22 31
e 22 32
e 22 33
e 22 37
e 22 38
e 22 45
e 22 47
e 22 51
e 22 53
e 22 54
e 22 55
e 23 27
e 23 29
e 23 30
e 23 31
e 23 32
e 23 33
e 23 38
e 23 45
e 23 49
e 23 50
e 23 51
e 23 56
e 23 57
e 23 59
e 24 25
e 24 28
e 24 34
e 24 35
e 24 39
e 24 40
e 24 41
e 24 44
e 24 46
e 24 48
e 24 52
e 24 58
e 24 60
e 25 26
e 25 27
e 25 32
e 25 45
e 25 47
e 25 54
e 25 55
e 25 56
e 25 57
e 26 34
e 26 35
e 26 36
e 26 41
e 26 42
e 26 43
e 26 46
e 26 48
e 26 52
e 27 28
e 27 39
e 27 41
e 27 42
e 27 43
e 27 44
e 27 46
e 27 48
e 28 30
e 28 38
e 28 47
e 28 50
e 28 54
e 28 57
e 28 59
e 29 35
e 29 36
e 29 39
e 29 41
e 29 42
e 29 48
e 30 39
e 30 40
e 30 43
e 30 44
e 30 46
e 30 52
e 30 58
e 31 35
e 31 40
e 31 43
e 31 46
e 31 48
e 31 52
e 31 58
e 31 60
e 32 34
e 32 35
e 32 36
e 32 41
e 32 43
e 32 44
e 32 46
e 32 48
e 32 58
e 33 34
e 33 35
e 33 39
e 33 41
e 33 42
e 33 44
e 33 46
e 33 58
e 34 45
e 34 49
e 34 53
e 34 54
e 34 59
e 35 37
e 35 38
e 35 50
e 35 51
e 35 55
e 35 59
e 36 38
e 36 45
e 36 49
e 36 50
e 36 51
e 36 54
e 36 57
e 37 40
e 37 41
e 37 43
e 37 44
e 37 58
e 38 40
e 38 42
e 38 43
e 38 48
e 38 52
e 38 58
e 39 45
e 39 47
e 39 53
e 39 57
e 39 59
e 40 49
e 40 50
e 40 54
e 40 55
e 40 56
e 40 57
e 40 59
e 41 45
e 41 49
e 41 50
e 41 51
e 41 55
e 41 57
e 41 59
e 42 45
e 42 47
e 42 51
e 42 53
e 42 54
e 42 56
e 42 57
e 43 49
e 43 50
e 43 51
e 43 55
e 43 56
e 43 59
e 44 45
e 44 50
e 44 54
e 44 56
e 44 57
e 44 59
e 45 48
e 45 52
e 46 47
e 46 50
e 46 53
e 46 54
e 46 55
e 46 56
e 46 59
e 47 48
e 47 52
e 47 60
e 48 54
e 48 55
e 48 57
e 49 52
e 50 58
e 50 60
e 51 52
e 52 53
e 52 54
e 52 56
e 53 58
e 54 60
e 55 60
e 57 60
e 59 60
